p cnf 434 1047
-1 -33 0 
1 2 33 0 
-2 -33 0 
-3 -34 0 
3 -33 34 0 
-4 -35 0 
4 -34 35 0 
-5 -36 0 
5 -35 36 0 
-6 -37 0 
6 -36 37 0 
-7 -38 0 
7 -37 38 0 
-8 -39 0 
8 -38 39 0 
-9 -40 0 
9 -39 40 0 
-10 -41 0 
10 -40 41 0 
-11 -42 0 
11 -41 42 0 
-12 -43 0 
12 -42 43 0 
-13 -44 0 
13 -43 44 0 
-14 -45 0 
14 -44 45 0 
-15 -46 0 
15 -45 46 0 
-16 -47 0 
16 -46 47 0 
-17 -48 0 
17 -47 48 0 
-18 -49 0 
18 -48 49 0 
-19 -50 0 
19 -49 50 0 
-20 -51 0 
20 -50 51 0 
-21 -52 0 
21 -51 52 0 
-22 -53 0 
22 -52 53 0 
-23 -54 0 
23 -53 54 0 
-24 -55 0 
24 -54 55 0 
-25 -56 0 
25 -55 56 0 
-26 -57 0 
26 -56 57 0 
-27 -58 0 
27 -57 58 0 
-28 -59 0 
28 -58 59 0 
-29 -60 0 
29 -59 60 0 
-30 -61 0 
30 -60 61 0 
-31 -62 0 
31 -61 62 0 
32 -62 0 
33 -34 0 
34 -35 0 
35 -36 0 
36 -37 0 
37 -38 0 
38 -39 0 
39 -40 0 
40 -41 0 
41 -42 0 
42 -43 0 
43 -44 0 
44 -45 0 
45 -46 0 
46 -47 0 
47 -48 0 
48 -49 0 
49 -50 0 
50 -51 0 
51 -52 0 
52 -53 0 
53 -54 0 
54 -55 0 
55 -56 0 
56 -57 0 
57 -58 0 
58 -59 0 
59 -60 0 
60 -61 0 
61 -62 0 
-63 -341 -157 0 
-63 341 157 0 
63 -341 157 0 
63 341 -157 0 
-64 -190 0 
-64 -158 191 0 
64 -191 0 
64 158 190 0 
-65 -193 0 
-65 -159 194 0 
65 -194 0 
65 159 193 0 
-66 -196 0 
-66 -160 197 0 
66 -197 0 
66 160 196 0 
-67 -199 0 
-67 -161 200 0 
67 -200 0 
67 161 199 0 
-68 -202 0 
-68 -162 203 0 
68 -203 0 
68 162 202 0 
-69 -205 0 
-69 -163 206 0 
69 -206 0 
69 163 205 0 
-70 -208 0 
-70 -164 209 0 
70 -209 0 
70 164 208 0 
-71 -211 0 
-71 -165 212 0 
71 -212 0 
71 165 211 0 
-72 -214 0 
-72 -166 215 0 
72 -215 0 
72 166 214 0 
-73 -217 0 
-73 -167 218 0 
73 -218 0 
73 167 217 0 
-74 -220 0 
-74 -168 221 0 
74 -221 0 
74 168 220 0 
-75 -223 0 
-75 -169 224 0 
75 -224 0 
75 169 223 0 
-76 -226 0 
-76 -170 227 0 
76 -227 0 
76 170 226 0 
-77 -229 0 
-77 -171 230 0 
77 -230 0 
77 171 229 0 
-78 -232 0 
-78 -172 233 0 
78 -233 0 
78 172 232 0 
-79 -235 0 
-79 -173 236 0 
79 -236 0 
79 173 235 0 
-80 -238 0 
-80 -174 239 0 
80 -239 0 
80 174 238 0 
-81 -241 0 
-81 -175 242 0 
81 -242 0 
81 175 241 0 
-82 -244 0 
-82 -176 245 0 
82 -245 0 
82 176 244 0 
-83 -247 0 
-83 -177 248 0 
83 -248 0 
83 177 247 0 
-84 -250 0 
-84 -178 251 0 
84 -251 0 
84 178 250 0 
-85 -253 0 
-85 -179 254 0 
85 -254 0 
85 179 253 0 
-86 -256 0 
-86 -180 257 0 
86 -257 0 
86 180 256 0 
-87 -259 0 
-87 -181 260 0 
87 -260 0 
87 181 259 0 
-88 -262 0 
-88 -182 263 0 
88 -263 0 
88 182 262 0 
-89 -265 0 
-89 -183 266 0 
89 -266 0 
89 183 265 0 
-90 -268 0 
-90 -184 269 0 
90 -269 0 
90 184 268 0 
-91 -271 0 
-91 -185 272 0 
91 -272 0 
91 185 271 0 
-92 -274 0 
-92 -187 275 0 
92 -275 0 
92 187 274 0 
-93 -277 0 
-93 -189 278 0 
93 -278 0 
93 189 277 0 
-94 -403 0 
-94 126 280 0 
94 -280 0 
94 -126 403 0 
-95 -157 -156 0 
-95 157 156 0 
95 -157 156 0 
95 157 -156 0 
-96 -156 0 
-96 -158 -155 0 
-96 158 155 0 
96 -155 156 0 
96 -158 155 0 
96 158 -155 0 
-97 -155 0 
-97 -159 -154 0 
-97 159 154 0 
97 -154 155 0 
97 -159 154 0 
97 159 -154 0 
-98 -154 0 
-98 -160 -153 0 
-98 160 153 0 
98 -153 154 0 
98 -160 153 0 
98 160 -153 0 
-99 -153 0 
-99 -161 -152 0 
-99 161 152 0 
99 -152 153 0 
99 -161 152 0 
99 161 -152 0 
-100 -152 0 
-100 -162 -151 0 
-100 162 151 0 
100 -151 152 0 
100 -162 151 0 
100 162 -151 0 
-101 -151 0 
-101 -163 -150 0 
-101 163 150 0 
101 -150 151 0 
101 -163 150 0 
101 163 -150 0 
-102 -150 0 
-102 -164 -149 0 
-102 164 149 0 
102 -149 150 0 
102 -164 149 0 
102 164 -149 0 
-103 -149 0 
-103 -165 -148 0 
-103 165 148 0 
103 -148 149 0 
103 -165 148 0 
103 165 -148 0 
-104 -148 0 
-104 -166 -147 0 
-104 166 147 0 
104 -147 148 0 
104 -166 147 0 
104 166 -147 0 
-105 -147 0 
-105 -167 -146 0 
-105 167 146 0 
105 -146 147 0 
105 -167 146 0 
105 167 -146 0 
-106 -146 0 
-106 -168 -145 0 
-106 168 145 0 
106 -145 146 0 
106 -168 145 0 
106 168 -145 0 
-107 -145 0 
-107 -169 -144 0 
-107 169 144 0 
107 -144 145 0 
107 -169 144 0 
107 169 -144 0 
-108 -144 0 
-108 -170 -143 0 
-108 170 143 0 
108 -143 144 0 
108 -170 143 0 
108 170 -143 0 
-109 -143 0 
-109 -171 -142 0 
-109 171 142 0 
109 -142 143 0 
109 -171 142 0 
109 171 -142 0 
-110 -142 0 
-110 -172 -141 0 
-110 172 141 0 
110 -141 142 0 
110 -172 141 0 
110 172 -141 0 
-111 -141 0 
-111 -173 -140 0 
-111 173 140 0 
111 -140 141 0 
111 -173 140 0 
111 173 -140 0 
-112 -140 0 
-112 -174 -139 0 
-112 174 139 0 
112 -139 140 0 
112 -174 139 0 
112 174 -139 0 
-113 -139 0 
-113 -175 -138 0 
-113 175 138 0 
113 -138 139 0 
113 -175 138 0 
113 175 -138 0 
-114 -138 0 
-114 -176 -137 0 
-114 176 137 0 
114 -137 138 0 
114 -176 137 0 
114 176 -137 0 
-115 -137 0 
-115 -177 -136 0 
-115 177 136 0 
115 -136 137 0 
115 -177 136 0 
115 177 -136 0 
-116 -136 0 
-116 -178 -135 0 
-116 178 135 0 
116 -135 136 0 
116 -178 135 0 
116 178 -135 0 
-117 -135 0 
-117 -179 -134 0 
-117 179 134 0 
117 -134 135 0 
117 -179 134 0 
117 179 -134 0 
-118 -134 0 
-118 -180 -133 0 
-118 180 133 0 
118 -133 134 0 
118 -180 133 0 
118 180 -133 0 
-119 -133 0 
-119 -181 -132 0 
-119 181 132 0 
119 -132 133 0 
119 -181 132 0 
119 181 -132 0 
-120 -132 0 
-120 -182 -131 0 
-120 182 131 0 
120 -131 132 0 
120 -182 131 0 
120 182 -131 0 
-121 -131 0 
-121 -183 -130 0 
-121 183 130 0 
121 -130 131 0 
121 -183 130 0 
121 183 -130 0 
-122 -130 0 
-122 -184 -129 0 
-122 184 129 0 
122 -129 130 0 
122 -184 129 0 
122 184 -129 0 
-123 -129 0 
-123 -185 128 0 
-123 185 -128 0 
123 128 129 0 
123 -185 -128 0 
123 185 128 0 
-124 -186 0 
-124 -127 128 0 
124 -128 0 
124 127 186 0 
-125 -188 0 
-125 -126 127 0 
125 -127 0 
125 126 188 0 
-126 -188 0 
-126 -280 0 
126 -127 0 
126 -403 0 
-127 -186 0 
-127 -189 0 
127 -128 0 
127 188 189 0 
-128 -129 0 
-128 -187 0 
128 186 187 0 
129 -130 0 
130 -131 0 
131 -132 0 
132 -133 0 
133 -134 0 
134 -135 0 
135 -136 0 
136 -137 0 
137 -138 0 
138 -139 0 
139 -140 0 
140 -141 0 
141 -142 0 
142 -143 0 
143 -144 0 
144 -145 0 
145 -146 0 
146 -147 0 
147 -148 0 
148 -149 0 
149 -150 0 
150 -151 0 
151 -152 0 
152 -153 0 
153 -154 0 
154 -155 0 
155 -156 0 
-158 -190 0 
158 -191 0 
-159 -193 0 
159 -194 0 
-160 -196 0 
160 -197 0 
-161 -199 0 
161 -200 0 
-162 -202 0 
162 -203 0 
-163 -205 0 
163 -206 0 
-164 -208 0 
164 -209 0 
-165 -211 0 
165 -212 0 
-166 -214 0 
166 -215 0 
-167 -217 0 
167 -218 0 
-168 -220 0 
168 -221 0 
-169 -223 0 
169 -224 0 
-170 -226 0 
170 -227 0 
-171 -229 0 
171 -230 0 
-172 -232 0 
172 -233 0 
-173 -235 0 
173 -236 0 
-174 -238 0 
174 -239 0 
-175 -241 0 
175 -242 0 
-176 -244 0 
176 -245 0 
-177 -247 0 
177 -248 0 
-178 -250 0 
178 -251 0 
-179 -253 0 
179 -254 0 
-180 -256 0 
180 -257 0 
-181 -259 0 
181 -260 0 
-182 -262 0 
182 -263 0 
-183 -265 0 
183 -266 0 
-184 -268 0 
184 -269 0 
-185 -271 0 
185 -272 0 
-186 -187 0 
-187 -274 0 
187 -275 0 
-188 -189 0 
-189 -277 0 
189 -278 0 
-190 -192 0 
190 191 192 0 
-191 -192 0 
-191 -340 0 
191 339 340 0 
-192 -343 0 
-192 338 339 0 
192 -339 0 
192 -338 343 0 
-193 -195 0 
193 194 195 0 
-194 -195 0 
-194 -338 0 
194 337 338 0 
-195 -345 0 
-195 336 337 0 
195 -337 0 
195 -336 345 0 
-196 -198 0 
196 197 198 0 
-197 -198 0 
-197 -336 0 
197 335 336 0 
-198 -347 0 
-198 334 335 0 
198 -335 0 
198 -334 347 0 
-199 -201 0 
199 200 201 0 
-200 -201 0 
-200 -334 0 
200 333 334 0 
-201 -349 0 
-201 332 333 0 
201 -333 0 
201 -332 349 0 
-202 -204 0 
202 203 204 0 
-203 -204 0 
-203 -332 0 
203 331 332 0 
-204 -351 0 
-204 330 331 0 
204 -331 0 
204 -330 351 0 
-205 -207 0 
205 206 207 0 
-206 -207 0 
-206 -330 0 
206 329 330 0 
-207 -353 0 
-207 328 329 0 
207 -329 0 
207 -328 353 0 
-208 -210 0 
208 209 210 0 
-209 -210 0 
-209 -328 0 
209 327 328 0 
-210 -355 0 
-210 326 327 0 
210 -327 0 
210 -326 355 0 
-211 -213 0 
211 212 213 0 
-212 -213 0 
-212 -326 0 
212 325 326 0 
-213 -357 0 
-213 324 325 0 
213 -325 0 
213 -324 357 0 
-214 -216 0 
214 215 216 0 
-215 -216 0 
-215 -324 0 
215 323 324 0 
-216 -359 0 
-216 322 323 0 
216 -323 0 
216 -322 359 0 
-217 -219 0 
217 218 219 0 
-218 -219 0 
-218 -322 0 
218 321 322 0 
-219 -361 0 
-219 320 321 0 
219 -321 0 
219 -320 361 0 
-220 -222 0 
220 221 222 0 
-221 -222 0 
-221 -320 0 
221 319 320 0 
-222 -363 0 
-222 318 319 0 
222 -319 0 
222 -318 363 0 
-223 -225 0 
223 224 225 0 
-224 -225 0 
-224 -318 0 
224 317 318 0 
-225 -365 0 
-225 316 317 0 
225 -317 0 
225 -316 365 0 
-226 -228 0 
226 227 228 0 
-227 -228 0 
-227 -316 0 
227 315 316 0 
-228 -367 0 
-228 314 315 0 
228 -315 0 
228 -314 367 0 
-229 -231 0 
229 230 231 0 
-230 -231 0 
-230 -314 0 
230 313 314 0 
-231 -369 0 
-231 312 313 0 
231 -313 0 
231 -312 369 0 
-232 -234 0 
232 233 234 0 
-233 -234 0 
-233 -312 0 
233 311 312 0 
-234 -371 0 
-234 310 311 0 
234 -311 0 
234 -310 371 0 
-235 -237 0 
235 236 237 0 
-236 -237 0 
-236 -310 0 
236 309 310 0 
-237 -373 0 
-237 308 309 0 
237 -309 0 
237 -308 373 0 
-238 -240 0 
238 239 240 0 
-239 -240 0 
-239 -308 0 
239 307 308 0 
-240 -375 0 
-240 306 307 0 
240 -307 0 
240 -306 375 0 
-241 -243 0 
241 242 243 0 
-242 -243 0 
-242 -306 0 
242 305 306 0 
-243 -377 0 
-243 304 305 0 
243 -305 0 
243 -304 377 0 
-244 -246 0 
244 245 246 0 
-245 -246 0 
-245 -304 0 
245 303 304 0 
-246 -379 0 
-246 302 303 0 
246 -303 0 
246 -302 379 0 
-247 -249 0 
247 248 249 0 
-248 -249 0 
-248 -302 0 
248 301 302 0 
-249 -381 0 
-249 300 301 0 
249 -301 0 
249 -300 381 0 
-250 -252 0 
250 251 252 0 
-251 -252 0 
-251 -300 0 
251 299 300 0 
-252 -383 0 
-252 298 299 0 
252 -299 0 
252 -298 383 0 
-253 -255 0 
253 254 255 0 
-254 -255 0 
-254 -298 0 
254 297 298 0 
-255 -385 0 
-255 296 297 0 
255 -297 0 
255 -296 385 0 
-256 -258 0 
256 257 258 0 
-257 -258 0 
-257 -296 0 
257 295 296 0 
-258 -387 0 
-258 294 295 0 
258 -295 0 
258 -294 387 0 
-259 -261 0 
259 260 261 0 
-260 -261 0 
-260 -294 0 
260 293 294 0 
-261 -389 0 
-261 292 293 0 
261 -293 0 
261 -292 389 0 
-262 -264 0 
262 263 264 0 
-263 -264 0 
-263 -292 0 
263 291 292 0 
-264 -391 0 
-264 290 291 0 
264 -291 0 
264 -290 391 0 
-265 -267 0 
265 266 267 0 
-266 -267 0 
-266 -290 0 
266 289 290 0 
-267 -393 0 
-267 288 289 0 
267 -289 0 
267 -288 393 0 
-268 -270 0 
268 269 270 0 
-269 -270 0 
-269 -288 0 
269 287 288 0 
-270 -395 0 
-270 286 287 0 
270 -287 0 
270 -286 395 0 
-271 -273 0 
271 272 273 0 
-272 -273 0 
-272 -286 0 
272 285 286 0 
-273 -397 0 
-273 284 285 0 
273 -285 0 
273 -284 397 0 
-274 -276 0 
274 275 276 0 
-275 -276 0 
-275 -284 0 
275 283 284 0 
-276 -399 0 
-276 282 283 0 
276 -283 0 
276 -282 399 0 
-277 -279 0 
277 278 279 0 
-278 -279 0 
-278 -282 0 
278 281 282 0 
-279 -401 0 
-279 -280 281 0 
279 -281 0 
279 280 401 0 
-280 -401 0 
-280 -404 0 
280 -281 0 
280 403 404 0 
-281 -282 0 
-281 -402 0 
281 401 402 0 
-282 -283 0 
282 -399 0 
-283 -284 0 
-283 -400 0 
283 399 400 0 
-284 -285 0 
284 -397 0 
-285 -286 0 
-285 -398 0 
285 397 398 0 
-286 -287 0 
286 -395 0 
-287 -288 0 
-287 -396 0 
287 395 396 0 
-288 -289 0 
288 -393 0 
-289 -290 0 
-289 -394 0 
289 393 394 0 
-290 -291 0 
290 -391 0 
-291 -292 0 
-291 -392 0 
291 391 392 0 
-292 -293 0 
292 -389 0 
-293 -294 0 
-293 -390 0 
293 389 390 0 
-294 -295 0 
294 -387 0 
-295 -296 0 
-295 -388 0 
295 387 388 0 
-296 -297 0 
296 -385 0 
-297 -298 0 
-297 -386 0 
297 385 386 0 
-298 -299 0 
298 -383 0 
-299 -300 0 
-299 -384 0 
299 383 384 0 
-300 -301 0 
300 -381 0 
-301 -302 0 
-301 -382 0 
301 381 382 0 
-302 -303 0 
302 -379 0 
-303 -304 0 
-303 -380 0 
303 379 380 0 
-304 -305 0 
304 -377 0 
-305 -306 0 
-305 -378 0 
305 377 378 0 
-306 -307 0 
306 -375 0 
-307 -308 0 
-307 -376 0 
307 375 376 0 
-308 -309 0 
308 -373 0 
-309 -310 0 
-309 -374 0 
309 373 374 0 
-310 -311 0 
310 -371 0 
-311 -312 0 
-311 -372 0 
311 371 372 0 
-312 -313 0 
312 -369 0 
-313 -314 0 
-313 -370 0 
313 369 370 0 
-314 -315 0 
314 -367 0 
-315 -316 0 
-315 -368 0 
315 367 368 0 
-316 -317 0 
316 -365 0 
-317 -318 0 
-317 -366 0 
317 365 366 0 
-318 -319 0 
318 -363 0 
-319 -320 0 
-319 -364 0 
319 363 364 0 
-320 -321 0 
320 -361 0 
-321 -322 0 
-321 -362 0 
321 361 362 0 
-322 -323 0 
322 -359 0 
-323 -324 0 
-323 -360 0 
323 359 360 0 
-324 -325 0 
324 -357 0 
-325 -326 0 
-325 -358 0 
325 357 358 0 
-326 -327 0 
326 -355 0 
-327 -328 0 
-327 -356 0 
327 355 356 0 
-328 -329 0 
328 -353 0 
-329 -330 0 
-329 -354 0 
329 353 354 0 
-330 -331 0 
330 -351 0 
-331 -332 0 
-331 -352 0 
331 351 352 0 
-332 -333 0 
332 -349 0 
-333 -334 0 
-333 -350 0 
333 349 350 0 
-334 -335 0 
334 -347 0 
-335 -336 0 
-335 -348 0 
335 347 348 0 
-336 -337 0 
336 -345 0 
-337 -338 0 
-337 -346 0 
337 345 346 0 
-338 -339 0 
338 -343 0 
-339 -340 0 
-339 -344 0 
339 343 344 0 
-340 -342 341 0 
-340 342 -341 0 
340 -342 -341 0 
340 342 341 0 
342 434 0 
-343 -344 0 
-344 -405 0 
344 346 405 0 
-345 -346 0 
-346 -405 0 
-347 -348 0 
-348 -406 0 
348 -405 406 0 
-349 -350 0 
-350 -407 0 
350 -406 407 0 
-351 -352 0 
-352 -408 0 
352 -407 408 0 
-353 -354 0 
-354 -409 0 
354 -408 409 0 
-355 -356 0 
-356 -410 0 
356 -409 410 0 
-357 -358 0 
-358 -411 0 
358 -410 411 0 
-359 -360 0 
-360 -412 0 
360 -411 412 0 
-361 -362 0 
-362 -413 0 
362 -412 413 0 
-363 -364 0 
-364 -414 0 
364 -413 414 0 
-365 -366 0 
-366 -415 0 
366 -414 415 0 
-367 -368 0 
-368 -416 0 
368 -415 416 0 
-369 -370 0 
-370 -417 0 
370 -416 417 0 
-371 -372 0 
-372 -418 0 
372 -417 418 0 
-373 -374 0 
-374 -419 0 
374 -418 419 0 
-375 -376 0 
-376 -420 0 
376 -419 420 0 
-377 -378 0 
-378 -421 0 
378 -420 421 0 
-379 -380 0 
-380 -422 0 
380 -421 422 0 
-381 -382 0 
-382 -423 0 
382 -422 423 0 
-383 -384 0 
-384 -424 0 
384 -423 424 0 
-385 -386 0 
-386 -425 0 
386 -424 425 0 
-387 -388 0 
-388 -426 0 
388 -425 426 0 
-389 -390 0 
-390 -427 0 
390 -426 427 0 
-391 -392 0 
-392 -428 0 
392 -427 428 0 
-393 -394 0 
-394 -429 0 
394 -428 429 0 
-395 -396 0 
-396 -430 0 
396 -429 430 0 
-397 -398 0 
-398 -431 0 
398 -430 431 0 
-399 -400 0 
-400 -432 0 
400 -431 432 0 
-401 -402 0 
-402 -433 0 
402 -432 433 0 
-403 -404 0 
-404 -434 0 
404 -433 434 0 
405 -406 0 
406 -407 0 
407 -408 0 
408 -409 0 
409 -410 0 
410 -411 0 
411 -412 0 
412 -413 0 
413 -414 0 
414 -415 0 
415 -416 0 
416 -417 0 
417 -418 0 
418 -419 0 
419 -420 0 
420 -421 0 
421 -422 0 
422 -423 0 
423 -424 0 
424 -425 0 
425 -426 0 
426 -427 0 
427 -428 0 
428 -429 0 
429 -430 0 
430 -431 0 
431 -432 0 
432 -433 0 
433 -434 0 
